12
0 48 17 14 4 81 55 100 79 44 83 39 
51 0 8 91 97 35 17 47 13 97 21 13 
91 70 0 20 51 39 8 23 29 15 33 44 
84 27 38 0 92 86 53 84 65 51 81 41 
53 19 82 51 0 42 53 34 24 15 94 87 
54 98 11 62 81 0 12 53 56 16 79 42 
46 69 59 8 86 40 0 43 39 8 71 12 
84 10 47 57 37 62 29 0 57 72 15 83 
86 86 51 97 95 90 76 12 0 97 10 78 
38 85 2 55 77 46 5 76 56 0 57 68 
28 60 44 87 98 64 74 85 84 59 0 67 
51 5 73 16 30 94 80 14 41 53 12 0 
